
  22   10
  10   10   10   10   10   10   10   10   10   10

   0   0   0   0   0   0   0   0   0   0   0   1 2 
   6  10  10  10  10  10  10  10  10  10  10   1 3 
  10  10  10  10  10  10  10  10  10  10  10   2 11 4 
   4  10  10  10  10  10  10  10  10  10  10   1 5 
   1  10  10  10  10  10  10  10  10  10  10   1 6 
   9  10  10  10  10  10  10  10  10  10  10   1 7 
   2  10  10  10  10  10  10  10  10  10  10   1 8 
   6  10  10  10  10  10  10  10  10  10  10   1 9 
   3  10  10  10  10  10  10  10  10  10  10   1 10 
   5  10  10  10  10  10  10  10  10  10  10   1 12 
   8  10  10  10  10  10  10  10  10  10  10   1 12 
   1  10  10  10  10  10  10  10  10  10  10   1 13 
   6  10  10  10  10  10  10  10  10  10  10   2 19 14 
   7  10  10  10  10  10  10  10  10  10  10   1 15 
   6  10  10  10  10  10  10  10  10  10  10   1 16 
   7  10  10  10  10  10  10  10  10  10  10   1 17 
   2  10  10  10  10  10  10  10  10  10  10   1 18 
   9  10  10  10  10  10  10  10  10  10  10   1 20 
   3  10  10  10  10  10  10  10  10  10  10   1 20 
   1  10  10  10  10  10  10  10  10  10  10   1 21 
   4  10  10  10  10  10  10  10  10  10  10   1 22
   0   0   0   0   0   0   0   0   0   0   0   0 
